23
3 0 6 0
3 0 7 0
3 0 4 0
3 0 5 0
3 0 9 0
3 0 10 0
3 0 15 0
3 0 14 0
3 0 17 0
4 0 12 1 0
3 0 3 0
3 0 26 0
4 0 23 21 0
3 0 8 0
4 0 31 30 0
3 0 29 0
4 0 16 36 0
4 0 32 35 0
5 0 34 28 18 0
4 0 33 22 0
4 0 2 13 0
5 0 20 19 27 0
5 0 24 11 25 0
